# Solution for model example
# Objective value = 2.3000013833272278e+07
y_state0_action0 9.9999750000000309e-01
y_state0_action1 9.9999979802990568e-01
y_state1_action1 9.9999979802990568e-01
y_state2_action0 9.9999825608139192e-01
y_state2_action1 9.9999864789186521e-01
y_state3_action1 9.9999864789186521e-01
y_state4_action0 9.9999840748333046e-01
y_state4_action1 0.9999988883004
y_state5_action0 9.9999878831388411e-01
y_state5_action1 9.9999898828691469e-01
y_state6_action1 9.9999898828691469e-01
y_state7_action0 9.9999898828691480e-01
y_state7_action1 0
y_state8_action1 0
y_state9_action0 0
y_state10_action0 9.9999750000000331e-01
y_state11_action0 9.9999825608139270e-01
y_state12_action0 9.9999840748333046e-01
y_state13_action0 9.9999878831388322e-01
y_state14_action0 9.9999898828691480e-01
y_state15_action0 0
y_state16_action1 9.9999750000000320e-01
y_state17_action0 9.9999750000000331e-01
y_state18_action0 9.9999825608139270e-01
y_state19_action0 9.9999840748333046e-01
y_state20_action1 9.9999878831388533e-01
y_state21_action0 9.9999878831388334e-01
y_state22_action0 9.9999898828691480e-01
y_state23_action0 0
y_state24_action0 9.9999990393974281e-01
y_state25_action2 9.9999990393974270e-01
y_state26_action2 9.9999742387506219e-01
y_state26_action1 9.9999908828772455e-01
y_state27_action0 9.9999908828772455e-01
y_state28_action0 9.9999840748333046e-01
y_state29_action0 1
y_state30_action2 1
y_state31_action2 1
y_state31_action1 1
y_state32_action0 1
y_state33_action0 0
y_state34_action0 9.9999972881810373e-01
y_state35_action2 9.9999935172636789e-01
y_state36_action2 9.9999935172636767e-01
y_state37_action2 9.9999935172636789e-01
y_state38_action2 1
y_state38_action1 9.9999719980164969e-01
y_state39_action0 9.9999906660055216e-01
y_state40_action2 1
y_state41_action2 1
y_state42_action2 1
y_state43_action2 0
y_state44_action0 0
y_state44_action1 9.9999972881810428e-01
y_state45_action1 9.9999972881810428e-01
y_state46_action0 0
y_state46_action1 9.9999972881810428e-01
y_state47_action1 9.9999972881810428e-01
y_state48_action0 9.9999990960600671e-01
y_state48_action1 9.9999954803020130e-01
y_state49_action0 1
y_state49_action1 1
y_state50_action1 1
y_state51_action0 1
y_state51_action1 1
y_state52_action1 1
y_state53_action0 1
y_state54_action0 0
y_state55_action0 0
y_state56_action0 9.9999990960600693e-01
y_state57_action0 1
y_state58_action0 1
y_state59_action0 1
y_state60_action1 0
y_state61_action0 0
y_state62_action0 0
y_state63_action0 9.9999990960600693e-01
y_state64_action1 1
y_state65_action0 1
y_state66_action0 1
y_state67_action0 1
y_state68_action0 0
y_state69_action2 0
y_state70_action2 0
y_state70_action1 0
y_state71_action0 0
y_state72_action0 9.9999990960600693e-01
y_state73_action0 1
y_state74_action2 1
y_state75_action2 1
y_state75_action1 1
y_state76_action0 1
y_state77_action0 1
y_state79_action2 0
y_state80_action2 0
y_state81_action2 0
y_state82_action2 0
y_state82_action1 9.9999990960600693e-01
y_state83_action3 1
y_state84_action2 1
y_state85_action2 1
y_state86_action2 1
y_state87_action2 1
x_reward0_state0_lower 2.7999999999068677e+01
x_reward0_state0_upper 1.8999987837321655e+01
x_reward0_state1_lower 2.6798029901459813e+01
x_reward0_state1_upper 1.8201957934930519e+01
x_reward0_state2_lower 2.5596059803850949e+01
x_reward0_state2_upper 1.7403928032539383e+01
x_reward0_state3_lower 2.3243951665703207e+01
x_reward0_state3_upper 1.7756036170687125e+01
x_reward0_state4_lower 2.0891843527555466e+01
x_reward0_state4_upper 1.8108144308834866e+01
x_reward0_state5_lower 18.7801439241739
x_reward0_state5_upper 1.8219843912216433e+01
x_reward0_state6_lower 1.6768430835683830e+01
x_reward0_state6_upper 1.8231557000706502e+01
x_reward0_state7_lower 1.4756717747193761e+01
x_reward0_state7_upper 1.8243270089196571e+01
x_reward0_state8_lower 6000016
x_reward0_state8_upper 1.0000172432700892e+06
x_reward0_state9_lower 5000015
x_reward0_state9_upper 2.0000162432700892e+06
x_reward0_state10_lower 2.4499999998835847e+01
x_reward0_state10_upper 2.0499987837321655e+01
x_reward0_state11_lower 2.2852141193230636e+01
x_reward0_state11_upper 1.8147846643159696e+01
x_reward0_state12_lower 1.8299326854641549e+01
x_reward0_state12_upper 1.8700660981748783e+01
x_reward0_state13_lower 1.6568457804969512e+01
x_reward0_state13_upper 1.8431530030140252e+01
x_reward0_state14_lower 1.4023426176980138e+01
x_reward0_state14_upper 1.8254983177641407e+01
x_reward0_state15_lower 4000014
x_reward0_state15_upper 3.0000152432700894e+06
x_reward0_state16_lower 2.0999999998835847e+01
x_reward0_state16_upper 2.1999987837321655e+01
x_reward0_state17_lower 1.7499999998835847e+01
x_reward0_state17_upper 2.3499987837392837e+01
x_reward0_state18_lower 2.0108222582610324e+01
x_reward0_state18_upper 1.8891765253780008e+01
x_reward0_state19_lower 1.5706810181727633e+01
x_reward0_state19_upper 19.2931776546627
x_reward0_state20_lower 1.4356771687045693e+01
x_reward0_state20_upper 1.8643216148064070e+01
x_reward0_state21_lower 1.2145085569121875e+01
x_reward0_state21_upper 1.8854902266059071e+01
x_reward0_state22_lower 1.2011713088490069e+01
x_reward0_state22_upper 1.8266696266131476e+01
x_reward0_state23_lower 3000013
x_reward0_state23_upper 4.0000142432700894e+06
x_reward0_state24_lower 1.2903939738287590e+01
x_reward0_state24_upper 1.9096051107829283e+01
x_reward0_state25_lower 1.3999999998835847e+01
x_reward0_state25_upper 1.9999990847281026e+01
x_reward0_state26_lower 1.7364303971990012e+01
x_reward0_state26_upper 1.9635683864283905e+01
x_reward0_state27_lower 1.5452591693261638e+01
x_reward0_state27_upper 1.9547396143012278e+01
x_reward0_state28_lower 1.3114293508813716e+01
x_reward0_state28_upper 1.9885694327531382e+01
x_reward0_state29_lower 8.9333994511980563e+00
x_reward0_state29_upper 14
x_reward0_state30_lower 9.9333994511980563e+00
x_reward0_state30_upper 15
x_reward0_state31_lower 10
x_reward0_state31_upper 1.8278409354666778e+01
x_reward0_state32_lower 1.1933399451198056e+01
x_reward0_state32_upper 1.7278409354666778e+01
x_reward0_state33_lower 2.0000129333994512e+06
x_reward0_state33_upper 5.0000132432700889e+06
x_reward0_state34_lower 1.1807879477739334e+01
x_reward0_state34_upper 1.7999992768483082e+01
x_reward0_state35_lower 1.3456153113162145e+01
x_reward0_state35_upper 1.8755655692586274e+01
x_reward0_state36_lower 1.5104426748584956e+01
x_reward0_state36_upper 1.9107382057163463e+01
x_reward0_state37_lower 1.3540879414533265e+01
x_reward0_state37_upper 1.9459108421740652e+01
x_reward0_state38_lower 10.5217768358998
x_reward0_state38_upper 20.4782110004453
x_reward0_state39_lower 7.9333994511980563e+00
x_reward0_state39_upper 13
x_reward0_state40_lower 8.9333994511980563e+00
x_reward0_state40_upper 14
x_reward0_state41_lower 9.9333994511980563e+00
x_reward0_state41_upper 15
x_reward0_state42_lower 1.0933399451198056e+01
x_reward0_state42_upper 16
x_reward0_state43_lower 1.0000119333994512e+06
x_reward0_state43_upper 6.0000122432700889e+06
x_reward0_state44_lower 1.0536697578150779e+01
x_reward0_state44_upper 1.7271174667489561e+01
x_reward0_state45_lower 9.2655156791443
x_reward0_state45_upper 1.6542356566496039e+01
x_reward0_state46_lower 7.9943337801378220e+00
x_reward0_state46_upper 1.5813538465416059e+01
x_reward0_state47_lower 6.7231518811313435e+00
x_reward0_state47_upper 1.5084720364422537e+01
x_reward0_state48_lower 5.4519699821248651e+00
x_reward0_state48_upper 1.4355902263429016e+01
x_reward0_state49_lower 6
x_reward0_state49_upper 12
x_reward0_state50_lower 7
x_reward0_state50_upper 11
x_reward0_state51_lower 6
x_reward0_state51_upper 10
x_reward0_state52_lower 9
x_reward0_state52_upper 9
x_reward0_state53_lower 8
x_reward0_state53_upper 8
x_reward0_state54_lower 0
x_reward0_state54_upper 0
x_reward0_state55_lower 0
x_reward0_state55_upper 0
x_reward0_state56_lower 4.3615759854437783e+00
x_reward0_state56_upper 1.3446296259877272e+01
x_reward0_state57_lower 5
x_reward0_state57_upper 11
x_reward0_state58_lower 5
x_reward0_state58_upper 9
x_reward0_state59_lower 7
x_reward0_state59_upper 7
x_reward0_state60_lower 0
x_reward0_state60_upper 0
x_reward0_state61_lower 0
x_reward0_state61_upper 0
x_reward0_state62_lower 0
x_reward0_state62_upper 0
x_reward0_state63_lower 3.2711819889955223e+00
x_reward0_state63_upper 1.2536690256325528e+01
x_reward0_state64_lower 4
x_reward0_state64_upper 10
x_reward0_state65_lower 3
x_reward0_state65_upper 9
x_reward0_state66_lower 4
x_reward0_state66_upper 8
x_reward0_state67_lower 6
x_reward0_state67_upper 6
x_reward0_state68_lower 0
x_reward0_state68_upper 0
x_reward0_state69_lower 0
x_reward0_state69_upper 0
x_reward0_state70_lower 0
x_reward0_state70_upper 0
x_reward0_state71_lower 0
x_reward0_state71_upper 0
x_reward0_state72_lower 2.1807879928965122e+00
x_reward0_state72_upper 1.1627084252773784e+01
x_reward0_state73_lower 1
x_reward0_state73_upper 1
x_reward0_state74_lower 2
x_reward0_state74_upper 2
x_reward0_state75_lower 3
x_reward0_state75_upper 7
x_reward0_state76_lower 4
x_reward0_state76_upper 6
x_reward0_state77_lower 5
x_reward0_state77_upper 5
x_reward0_state78_lower 0
x_reward0_state78_upper 0
x_reward0_state79_lower 0
x_reward0_state79_upper 0
x_reward0_state80_lower 0
x_reward0_state80_upper 0
x_reward0_state81_lower 0
x_reward0_state81_upper 0
x_reward0_state82_lower 1.0903939964482561e+00
x_reward0_state82_upper 9.9999990960600360e-01
x_reward0_state83_lower 0
x_reward0_state83_upper 0
x_reward0_state84_lower 1
x_reward0_state84_upper 1
x_reward0_state85_lower 2
x_reward0_state85_upper 2
x_reward0_state86_lower 3
x_reward0_state86_upper 3
x_reward0_state87_lower 4
x_reward0_state87_upper 4
x_reward1_state0_lower 1.1211820968543179e+01
x_reward1_state0_upper 0
x_reward1_state1_lower 1.1009850870934315e+01
x_reward1_state1_upper 2.0197009760886431e-01
x_reward1_state2_lower 1.0807880773325451e+01
x_reward1_state2_upper 4.0394019521772861e-01
x_reward1_state3_lower 9.45577263517771
x_reward1_state3_upper 1.7560483333654702e+00
x_reward1_state4_lower 8.1036644970299676e+00
x_reward1_state4_upper 3.1081564715132117e+00
x_reward1_state5_lower 6.9919648936484009e+00
x_reward1_state5_upper 4.2198560748947784e+00
x_reward1_state6_lower 5.9802518051583320e+00
x_reward1_state6_upper 5.2315691633848473e+00
x_reward1_state7_lower 4.9685387166682631e+00
x_reward1_state7_upper 6.2432822519913316e+00
x_reward1_state8_lower 6000000
x_reward1_state8_upper 1.0000062432822520e+06
x_reward1_state9_lower 5000000
x_reward1_state9_upper 2.0000062432822520e+06
x_reward1_state10_lower 1.4499999818624929e+01
x_reward1_state10_upper 2.5
x_reward1_state11_lower 1.0063961982610635e+01
x_reward1_state11_upper 2.1478588058380410e+00
x_reward1_state12_lower 8.5111478235339746e+00
x_reward1_state12_upper 4.7006731444271281e+00
x_reward1_state13_lower 9.5684578049695119e+00
x_reward1_state13_upper 5.4315421928185970e+00
x_reward1_state14_lower 3.9568256281781942e+00
x_reward1_state14_upper 7.2549953404814005e+00
x_reward1_state15_lower 4000000
x_reward1_state15_upper 3.0000062432822520e+06
x_reward1_state16_lower 1.1999999818624929e+01
x_reward1_state16_upper 5
x_reward1_state17_lower 8.4999998186249286e+00
x_reward1_state17_upper 6.5
x_reward1_state18_lower 8.3200433719903231e+00
x_reward1_state18_upper 3.8917774164583534e+00
x_reward1_state19_lower 6.9186311506200582e+00
x_reward1_state19_upper 6.2931898173410445e+00
x_reward1_state20_lower 8.3567716870456934e+00
x_reward1_state20_upper 6.6432283129543066e+00
x_reward1_state21_lower 6.1450855691218749e+00
x_reward1_state21_upper 6.8549144308781251e+00
x_reward1_state22_lower 2.9451125396881253e+00
x_reward1_state22_upper 8.26670842897147
x_reward1_state23_lower 3000000
x_reward1_state23_upper 4.0000062432822520e+06
x_reward1_state24_lower 2.9039395579602569e+00
x_reward1_state24_upper 5.5960601400583982e+00
x_reward1_state25_lower 4.4999998186249286e+00
x_reward1_state25_upper 6.9999998795101419e+00
x_reward1_state26_lower 6.5761247613700107e+00
x_reward1_state26_upper 5.6356960270786658e+00
x_reward1_state27_lower 5.6644124826416373e+00
x_reward1_state27_upper 6.5474083058070391e+00
x_reward1_state28_lower 5.3261144777061418e+00
x_reward1_state28_upper 7.8857064902549610e+00
x_reward1_state29_lower 1.9333994511980563e+00
x_reward1_state29_upper 5.0666005488019437e+00
x_reward1_state30_lower 3.4333994511980563e+00
x_reward1_state30_upper 6.5666005488019437e+00
x_reward1_state31_lower 1.9333994511980563e+00
x_reward1_state31_upper 9.2784215174615383e+00
x_reward1_state32_lower 1.9333994511980563e+00
x_reward1_state32_upper 9.2784215174615383e+00
x_reward1_state33_lower 2.0000009333994512e+06
x_reward1_state33_upper 5.0000062432822520e+06
x_reward1_state34_lower 1.8078792974120006e+00
x_reward1_state34_upper 4.6921204006066546e+00
x_reward1_state35_lower 2.4561529328348115e+00
x_reward1_state35_upper 4.4477869604015723e+00
x_reward1_state36_lower 3.1044265684904531e+00
x_reward1_state36_upper 3.7995133249787614e+00
x_reward1_state37_lower 3.7527002039132640e+00
x_reward1_state37_upper 3.1512396895559505e+00
x_reward1_state38_lower 3.7335978047922254e+00
x_reward1_state38_upper 9.4782231631688774e+00
x_reward1_state39_lower 9.3339945119805634e-01
x_reward1_state39_upper 4.0666005488019437e+00
x_reward1_state40_lower 9.3339945119805634e-01
x_reward1_state40_upper 4.0666005488019437e+00
x_reward1_state41_lower 9.3339945119805634e-01
x_reward1_state41_upper 4.0666005488019437e+00
x_reward1_state42_lower 9.3339945119805634e-01
x_reward1_state42_upper 4.0666005488019437e+00
x_reward1_state43_lower 1.0000009333994512e+06
x_reward1_state43_upper 6.0000062432822520e+06
x_reward1_state44_lower 1.5366973978234455e+00
x_reward1_state44_upper 4.9633022996131331e+00
x_reward1_state45_lower 1.2655154988169670e+00
x_reward1_state45_upper 5.2344841986196116e+00
x_reward1_state46_lower 9.9433359981048852e-01
x_reward1_state46_upper 5.50566609762609
x_reward1_state47_lower 0.72315170080401
x_reward1_state47_upper 5.7768479966325685e+00
x_reward1_state48_lower 4.5196980179753155e-01
x_reward1_state48_upper 6.0480298956390470e+00
x_reward1_state49_lower 0
x_reward1_state49_upper 5
x_reward1_state50_lower 0
x_reward1_state50_upper 5
x_reward1_state51_lower 0
x_reward1_state51_upper 5
x_reward1_state52_lower 0
x_reward1_state52_upper 5
x_reward1_state53_lower 0
x_reward1_state53_upper 5
x_reward1_state54_lower 0
x_reward1_state54_upper 0
x_reward1_state55_lower 0
x_reward1_state55_upper 0
x_reward1_state56_lower 3.6157598544377834e-01
x_reward1_state56_upper 0
x_reward1_state57_lower 5
x_reward1_state57_upper 5
x_reward1_state58_lower 1
x_reward1_state58_upper 5
x_reward1_state59_lower 0
x_reward1_state59_upper 0
x_reward1_state60_lower 0
x_reward1_state60_upper 0
x_reward1_state61_lower 0
x_reward1_state61_upper 0
x_reward1_state62_lower 0
x_reward1_state62_upper 0
x_reward1_state63_lower 2.7118198899552226e-01
x_reward1_state63_upper 0
x_reward1_state64_lower 5
x_reward1_state64_upper 5
x_reward1_state65_lower 4
x_reward1_state65_upper 4
x_reward1_state66_lower 1
x_reward1_state66_upper 5
x_reward1_state67_lower 0
x_reward1_state67_upper 0
x_reward1_state68_lower 0
x_reward1_state68_upper 0
x_reward1_state69_lower 0
x_reward1_state69_upper 0
x_reward1_state70_lower 0
x_reward1_state70_upper 0
x_reward1_state71_lower 0
x_reward1_state71_upper 0
x_reward1_state72_lower 1.8078799289651215e-01
x_reward1_state72_upper 0
x_reward1_state73_lower 1
x_reward1_state73_upper 1
x_reward1_state74_lower 2.5
x_reward1_state74_upper 2.5
x_reward1_state75_lower 1
x_reward1_state75_upper 5
x_reward1_state76_lower 1
x_reward1_state76_upper 1
x_reward1_state77_lower 0
x_reward1_state77_upper 0
x_reward1_state78_lower 0
x_reward1_state78_upper 0
x_reward1_state79_lower 0
x_reward1_state79_upper 0
x_reward1_state80_lower 0
x_reward1_state80_upper 0
x_reward1_state81_lower 0
x_reward1_state81_upper 0
x_reward1_state82_lower 9.0393996448256075e-02
x_reward1_state82_upper 0
x_reward1_state83_lower 0
x_reward1_state83_upper 0
x_reward1_state84_lower 0
x_reward1_state84_upper 0
x_reward1_state85_lower 0
x_reward1_state85_upper 0
x_reward1_state86_lower 0
x_reward1_state86_upper 0
x_reward1_state87_lower 0
x_reward1_state87_upper 0
x_reward2_state0_lower 1.4211820967961103e+01
x_reward2_state0_upper 0
x_reward2_state1_lower 1.4009850870352238e+01
x_reward2_state1_upper 2.0197009760886431e-01
x_reward2_state2_lower 1.3807880772743374e+01
x_reward2_state2_upper 4.0394019521772861e-01
x_reward2_state3_lower 1.2455772634595633e+01
x_reward2_state3_upper 1.7560483333654702e+00
x_reward2_state4_lower 1.1103664496447891e+01
x_reward2_state4_upper 3.1081564715132117e+00
x_reward2_state5_lower 9.9919648930663243e+00
x_reward2_state5_upper 4.2198560748947784e+00
x_reward2_state6_lower 8.98025180445984
x_reward2_state6_upper 5.2315691633848473e+00
x_reward2_state7_lower 7.9685387159697711e+00
x_reward2_state7_upper 6.2432822519913316e+00
x_reward2_state8_lower 6000001
x_reward2_state8_upper 1.0000062432822520e+06
x_reward2_state9_lower 5000001
x_reward2_state9_upper 2.0000062432822520e+06
x_reward2_state10_lower 1.4499999998835847e+01
x_reward2_state10_upper 2.5
x_reward2_state11_lower 1.2063962161308154e+01
x_reward2_state11_upper 2.1478588058380410e+00
x_reward2_state12_lower 9.5111478235339746e+00
x_reward2_state12_upper 4.7006731444271281e+00
x_reward2_state13_lower 1.0568457804969512e+01
x_reward2_state13_upper 5.4315421928185970e+00
x_reward2_state14_lower 6.9568256281781942e+00
x_reward2_state14_upper 7.2549953404814005e+00
x_reward2_state15_lower 4000001
x_reward2_state15_upper 3.0000062432822520e+06
x_reward2_state16_lower 1.0999999998835847e+01
x_reward2_state16_upper 4
x_reward2_state17_lower 7.4999999988358468e+00
x_reward2_state17_upper 5.5
x_reward2_state18_lower 9.3200435506878421e+00
x_reward2_state18_upper 2.8917774164583534e+00
x_reward2_state19_lower 7.9186311506200582e+00
x_reward2_state19_upper 6.2931898173410445e+00
x_reward2_state20_lower 8.3567716870456934e+00
x_reward2_state20_upper 5.6432283108588308e+00
x_reward2_state21_lower 6.1450855691218749e+00
x_reward2_state21_upper 5.8549144287826493e+00
x_reward2_state22_lower 4.9451125396881253e+00
x_reward2_state22_upper 7.2667084289714694e+00
x_reward2_state23_lower 3000001
x_reward2_state23_upper 4.0000062432822520e+06
x_reward2_state24_lower 2.9039397382875904e+00
x_reward2_state24_upper 4.0960604423889890e+00
x_reward2_state25_lower 3.9999999988358468e+00
x_reward2_state25_upper 5.0000001818407327e+00
x_reward2_state26_lower 6.57612494006753
x_reward2_state26_upper 3.6356960270786658e+00
x_reward2_state27_lower 5.6644126629689708e+00
x_reward2_state27_upper 4.5474083058070391e+00
x_reward2_state28_lower 6.3261144777061418e+00
x_reward2_state28_upper 7.8857064902549610e+00
x_reward2_state29_lower 2.9333994511980563e+00
x_reward2_state29_upper 5.0666005488019437e+00
x_reward2_state30_lower 3.9333994511980563e+00
x_reward2_state30_upper 6.0666005488019437e+00
x_reward2_state31_lower 2.9333994511980563e+00
x_reward2_state31_upper 7.2784215174615383e+00
x_reward2_state32_lower 2.9333994511980563e+00
x_reward2_state32_upper 7.2784215174615383e+00
x_reward2_state33_lower 2.0000029333994512e+06
x_reward2_state33_upper 5.0000062432822520e+06
x_reward2_state34_lower 1.8078794777393341e+00
x_reward2_state34_upper 3.1921207029372454e+00
x_reward2_state35_lower 2.4561531131621450e+00
x_reward2_state35_upper 2.9477872627321631e+00
x_reward2_state36_lower 3.1044267488177866e+00
x_reward2_state36_upper 2.2995136273093522e+00
x_reward2_state37_lower 3.7527003842405975e+00
x_reward2_state37_upper 1.6512399918865412e+00
x_reward2_state38_lower 4.7335978047922254e+00
x_reward2_state38_upper 9.4782231631688774e+00
x_reward2_state39_lower 1.9333994511980563e+00
x_reward2_state39_upper 4.0666005488019437e+00
x_reward2_state40_lower 1.9333994511980563e+00
x_reward2_state40_upper 4.0666005488019437e+00
x_reward2_state41_lower 1.9333994511980563e+00
x_reward2_state41_upper 4.0666005488019437e+00
x_reward2_state42_lower 1.9333994511980563e+00
x_reward2_state42_upper 4.0666005488019437e+00
x_reward2_state43_lower 1.0000029333994512e+06
x_reward2_state43_upper 6.0000062432822520e+06
x_reward2_state44_lower 1.5366975781507790e+00
x_reward2_state44_upper 3.4633026019437239e+00
x_reward2_state45_lower 1.2655156791443005e+00
x_reward2_state45_upper 3.7344845009502023e+00
x_reward2_state46_lower 0.994333780137822
x_reward2_state46_upper 4.0056663999566808e+00
x_reward2_state47_lower 7.2315188113134354e-01
x_reward2_state47_upper 4.2768482989631593e+00
x_reward2_state48_lower 4.5196998212486506e-01
x_reward2_state48_upper 4.5480301979696378e+00
x_reward2_state49_lower 1
x_reward2_state49_upper 5
x_reward2_state50_lower 1
x_reward2_state50_upper 5
x_reward2_state51_lower 1
x_reward2_state51_upper 5
x_reward2_state52_lower 1
x_reward2_state52_upper 5
x_reward2_state53_lower 1
x_reward2_state53_upper 5
x_reward2_state54_lower 0
x_reward2_state54_upper 0
x_reward2_state55_lower 0
x_reward2_state55_upper 0
x_reward2_state56_lower 3.6157598544377834e-01
x_reward2_state56_upper 0
x_reward2_state57_lower 5
x_reward2_state57_upper 5
x_reward2_state58_lower 3
x_reward2_state58_upper 5
x_reward2_state59_lower 1
x_reward2_state59_upper 5
x_reward2_state60_lower 0
x_reward2_state60_upper 0
x_reward2_state61_lower 0
x_reward2_state61_upper 0
x_reward2_state62_lower 0
x_reward2_state62_upper 0
x_reward2_state63_lower 2.7118198899552226e-01
x_reward2_state63_upper 0
x_reward2_state64_lower 4
x_reward2_state64_upper 4
x_reward2_state65_lower 3
x_reward2_state65_upper 3
x_reward2_state66_lower 2
x_reward2_state66_upper 4
x_reward2_state67_lower 1
x_reward2_state67_upper 5
x_reward2_state68_lower 0
x_reward2_state68_upper 0
x_reward2_state69_lower 0
x_reward2_state69_upper 0
x_reward2_state70_lower 0
x_reward2_state70_upper 0
x_reward2_state71_lower 0
x_reward2_state71_upper 0
x_reward2_state72_lower 1.8078799289651215e-01
x_reward2_state72_upper 0
x_reward2_state73_lower 1
x_reward2_state73_upper 1
x_reward2_state74_lower 2
x_reward2_state74_upper 2
x_reward2_state75_lower 1
x_reward2_state75_upper 3
x_reward2_state76_lower 1
x_reward2_state76_upper 1
x_reward2_state77_lower 1
x_reward2_state77_upper 5
x_reward2_state78_lower 0
x_reward2_state78_upper 0
x_reward2_state79_lower 0
x_reward2_state79_upper 0
x_reward2_state80_lower 0
x_reward2_state80_upper 0
x_reward2_state81_lower 0
x_reward2_state81_upper 0
x_reward2_state82_lower 9.0393996448256075e-02
x_reward2_state82_upper 0
x_reward2_state83_lower 0
x_reward2_state83_upper 0
x_reward2_state84_lower 0
x_reward2_state84_upper 0
x_reward2_state85_lower 0
x_reward2_state85_upper 0
x_reward2_state86_lower 0
x_reward2_state86_upper 0
x_reward2_state87_lower 1
x_reward2_state87_upper 1
